c defined variables: 13 25 29 33 37 41 45 49 53 57 61 65 69 73 77 81 85 89 93 97 101 105 109 113 126 136 140 144 148 152 156 160 164 168 172 176 180 184 188 192 202 206 210 214 218 222 226 237 245 246 248 249 250 252 253 255 256 257 258 260 261 263 264 265 267 268 270 271 272 273 274 276 277 281 282 284 285 286 287 289 290 292 294 296 297 299 300 301 302 303 304 306 307 309 310 311 313 314 316 317 318 319 321 322 324 325 326 328 329 331 332 333 334 335 339 340 341 343 344 347 350 351 353 354 355 357 358 359 360 361 362 363 364 365 366 367 368 369 370 371 372 373 374 375 376 377 378 379 380 381 382 383 384 386 387 388 389 390 391 392 393 394 395 396 397 398 399 400 401 402 403 404 405 406 407 408 409 410 411 412 413 414 415 416 417 418 419 420 421 422 423 424 425 426 427 428 429 430 432 433 434 435 436 437 438 440 441 442 443 445 446 447 448 449 450 451 452 453 454 455 456 457 458 460 
p cnf 1608 2013
a 240 235 232 229 68 72 56 64 48 60 40 52 32 44 308 312 385 280 283 288 291 295 298 305 444 439 431 330 342 338 320 315 327 323 20 36 4 8 24 16 1 28 12 352 5 236 349 21 2 9 17 191 183 167 171 179 175 151 155 159 163 269 275 247 251 244 262 266 254 259 198 201 187 195 209 217 205 213 221 225 104 96 100 92 88 84 76 80 112 108 122 135 129 132 116 139 125 119 147 143 0
e 3 6 7 10 11 14 15 18 19 22 23 26 27 30 31 34 35 38 39 42 43 46 47 50 51 54 55 58 59 62 63 66 67 70 71 74 75 78 79 82 83 86 87 90 91 94 95 98 99 102 103 106 107 110 111 114 115 117 118 120 121 123 124 127 128 130 131 133 134 137 138 141 142 145 146 149 150 153 154 157 158 161 162 165 166 169 170 173 174 177 178 181 182 185 186 189 190 193 194 196 197 199 200 203 204 207 208 211 212 215 216 219 220 223 224 227 228 230 231 233 234 238 239 242 243 279 293 337 346 356 459 13 25 29 33 37 41 45 49 53 57 61 65 69 73 77 81 85 89 93 97 101 105 109 113 126 136 140 144 148 152 156 160 164 168 172 176 180 184 188 192 202 206 210 214 218 222 226 237 245 246 248 249 250 252 253 255 256 257 258 260 261 263 264 265 267 268 270 271 272 273 274 276 277 281 282 284 285 286 287 289 290 292 294 296 297 299 300 301 302 303 304 306 307 309 310 311 313 314 316 317 318 319 321 322 324 325 326 328 329 331 332 333 334 335 339 340 341 343 344 347 350 351 353 354 355 357 358 359 360 361 362 363 364 365 366 367 368 369 370 371 372 373 374 375 376 377 378 379 380 381 382 383 384 386 387 388 389 390 391 392 393 394 395 396 397 398 399 400 401 402 403 404 405 406 407 408 409 410 411 412 413 414 415 416 417 418 419 420 421 422 423 424 425 426 427 428 429 430 432 433 434 435 436 437 438 440 441 442 443 445 446 447 448 449 450 451 452 453 454 455 456 457 458 460 1399 1400 1401 1402 1403 1404 1405 1406 1407 1408 1409 1410 1411 1412 1413 1414 1415 1416 1417 1418 1419 1420 1421 1422 1423 1424 1425 1426 1427 1428 1429 1430 1431 1432 1433 1434 1435 1436 1437 1438 1439 1440 1441 1442 1443 1444 1445 1446 1447 1448 1449 1450 1451 1452 1453 1454 1455 1456 1457 1458 1459 1460 1461 1462 1463 1464 1465 1466 1467 1468 1469 1470 1471 1472 1473 1474 1475 1476 1477 1478 1479 1480 1481 1482 1483 1484 1485 1486 1487 1488 1489 1490 1491 1492 1493 1494 1495 1496 1497 1498 1499 1500 1501 1502 1503 1504 1505 1506 1507 1508 1509 1510 1511 1512 1513 1514 1515 1516 1517 1518 1519 1520 1521 1522 1523 1524 1525 1526 1527 1528 1529 1530 1531 1532 1533 1534 1535 1536 1537 1538 1539 1540 1541 1542 1543 1544 1545 1546 1547 1548 1549 1550 1551 1552 1553 1554 1555 1556 1557 1558 1559 1560 1561 1562 1563 1564 1565 1566 1567 1568 1569 1570 1571 1572 1573 1574 1575 1576 1577 1578 1579 1580 1581 1582 1583 1584 1585 1586 1587 1588 1589 1590 1591 1592 1593 1594 1595 1596 1597 1598 1599 1600 1601 1602 1603 1604 1605 1606 1607 1608 0
d 278 385 198 195 2 0
d 336 431 2 0
d 241 5 21 9 17 0
d 348 240 235 232 444 2 0
d 345 5 229 2 9 439 0
1400 -13 0
-1400 13 0
1401 -25 0
-1401 25 0
1402 -29 0
-1402 29 0
1403 -33 0
-1403 33 0
1404 -37 0
-1404 37 0
1405 -41 0
-1405 41 0
1406 -45 0
-1406 45 0
1407 -49 0
-1407 49 0
1408 -53 0
-1408 53 0
1409 -57 0
-1409 57 0
1410 -61 0
-1410 61 0
1411 -65 0
-1411 65 0
1412 -69 0
-1412 69 0
1413 -73 0
-1413 73 0
1414 -77 0
-1414 77 0
1415 -81 0
-1415 81 0
1416 -85 0
-1416 85 0
1417 -89 0
-1417 89 0
1418 -93 0
-1418 93 0
1419 -97 0
-1419 97 0
1420 -101 0
-1420 101 0
1421 -105 0
-1421 105 0
1422 -109 0
-1422 109 0
1423 -113 0
-1423 113 0
1424 -126 0
-1424 126 0
1425 -136 0
-1425 136 0
1426 -140 0
-1426 140 0
1427 -144 0
-1427 144 0
1428 -148 0
-1428 148 0
1429 -152 0
-1429 152 0
1430 -156 0
-1430 156 0
1407 -160 0
-1407 160 0
1431 -164 0
-1431 164 0
1432 -168 0
-1432 168 0
1433 -172 0
-1433 172 0
1434 -176 0
-1434 176 0
1435 -180 0
-1435 180 0
1436 -184 0
-1436 184 0
1437 -188 0
-1437 188 0
1438 -192 0
-1438 192 0
1439 -202 0
-1439 202 0
1440 -206 0
-1440 206 0
1419 -210 0
-1419 210 0
1441 -214 0
-1441 214 0
1442 -218 0
-1442 218 0
1443 -222 0
-1443 222 0
1444 -226 0
-1444 226 0
1445 -237 0
-1445 237 0
1446 -245 0
-1446 245 0
1447 -246 0
-1447 246 0
1448 -248 0
-1448 248 0
1449 -249 0
-1449 249 0
-1450 -250 0
1450 250 0
1451 -252 0
-1451 252 0
1452 -253 0
-1452 253 0
1453 -255 0
-1453 255 0
1454 -256 0
-1454 256 0
-1455 -257 0
1455 257 0
-1456 -258 0
1456 258 0
1457 -260 0
-1457 260 0
1458 -261 0
-1458 261 0
1459 -263 0
-1459 263 0
1460 -264 0
-1460 264 0
-1461 -265 0
1461 265 0
1462 -267 0
-1462 267 0
1463 -268 0
-1463 268 0
1464 -270 0
-1464 270 0
1465 -271 0
-1465 271 0
-1466 -272 0
1466 272 0
-1467 -273 0
1467 273 0
-1468 -274 0
1468 274 0
1469 -276 0
-1469 276 0
1470 -277 0
-1470 277 0
1471 -281 0
-1471 281 0
1472 -282 0
-1472 282 0
1473 -284 0
-1473 284 0
1474 -285 0
-1474 285 0
-1475 -286 0
1475 286 0
-1476 -287 0
1476 287 0
1477 -289 0
-1477 289 0
1478 -290 0
-1478 290 0
1479 -292 0
-1479 292 0
-1480 -294 0
1480 294 0
1481 -296 0
-1481 296 0
1482 -297 0
-1482 297 0
1483 -299 0
-1483 299 0
1484 -300 0
-1484 300 0
-1485 -301 0
1485 301 0
-1486 -302 0
1486 302 0
-1487 -303 0
1487 303 0
-1488 -304 0
1488 304 0
1489 -306 0
-1489 306 0
1490 -307 0
-1490 307 0
1491 -309 0
-1491 309 0
1492 -310 0
-1492 310 0
-1493 -311 0
1493 311 0
1494 -313 0
-1494 313 0
1495 -314 0
-1495 314 0
1496 -316 0
-1496 316 0
1497 -317 0
-1497 317 0
-1498 -318 0
1498 318 0
-1499 -319 0
1499 319 0
1500 -321 0
-1500 321 0
1501 -322 0
-1501 322 0
1502 -324 0
-1502 324 0
1503 -325 0
-1503 325 0
-1504 -326 0
1504 326 0
1505 -328 0
-1505 328 0
1506 -329 0
-1506 329 0
1507 -331 0
-1507 331 0
1508 -332 0
-1508 332 0
-1509 -333 0
1509 333 0
-1510 -334 0
1510 334 0
-1511 -335 0
1511 335 0
1512 -339 0
-1512 339 0
1513 -340 0
-1513 340 0
-1514 -341 0
1514 341 0
1515 -343 0
-1515 343 0
1516 -344 0
-1516 344 0
-1517 -347 0
1517 347 0
1518 -350 0
-1518 350 0
1519 -351 0
-1519 351 0
1520 -353 0
-1520 353 0
1521 -354 0
-1521 354 0
-1522 -355 0
1522 355 0
-1523 -357 0
1523 357 0
-1524 -358 0
1524 358 0
-1525 -359 0
1525 359 0
1526 -360 0
-1526 360 0
1527 -361 0
-1527 361 0
1528 -362 0
-1528 362 0
1529 -363 0
-1529 363 0
-1530 -364 0
1530 364 0
1531 -365 0
-1531 365 0
1532 -366 0
-1532 366 0
1533 -367 0
-1533 367 0
1534 -368 0
-1534 368 0
-1535 -369 0
1535 369 0
-1536 -370 0
1536 370 0
1537 -371 0
-1537 371 0
1538 -372 0
-1538 372 0
1539 -373 0
-1539 373 0
1540 -374 0
-1540 374 0
-1541 -375 0
1541 375 0
1542 -376 0
-1542 376 0
1543 -377 0
-1543 377 0
1544 -378 0
-1544 378 0
1545 -379 0
-1545 379 0
-1546 -380 0
1546 380 0
-1547 -381 0
1547 381 0
-1548 -382 0
1548 382 0
1549 -383 0
-1549 383 0
1550 -384 0
-1550 384 0
1551 -386 0
-1551 386 0
1552 -387 0
-1552 387 0
-1553 -388 0
1553 388 0
1554 -389 0
-1554 389 0
1555 -390 0
-1555 390 0
1556 -391 0
-1556 391 0
1557 -392 0
-1557 392 0
-1558 -393 0
1558 393 0
-1559 -394 0
1559 394 0
1560 -395 0
-1560 395 0
1561 -396 0
-1561 396 0
1562 -397 0
-1562 397 0
1563 -398 0
-1563 398 0
-1564 -399 0
1564 399 0
1565 -400 0
-1565 400 0
1566 -401 0
-1566 401 0
1567 -402 0
-1567 402 0
1568 -403 0
-1568 403 0
-1569 -404 0
1569 404 0
-1570 -405 0
1570 405 0
-1571 -406 0
1571 406 0
-1573 -407 0
1573 407 0
1489 -408 0
-1489 408 0
1574 -409 0
-1574 409 0
1491 -410 0
-1491 410 0
1575 -411 0
-1575 411 0
-1576 -412 0
1576 412 0
1494 -413 0
-1494 413 0
1577 -414 0
-1577 414 0
1496 -415 0
-1496 415 0
1578 -416 0
-1578 416 0
-1579 -417 0
1579 417 0
-1580 -418 0
1580 418 0
1500 -419 0
-1500 419 0
1581 -420 0
-1581 420 0
1502 -421 0
-1502 421 0
1582 -422 0
-1582 422 0
-1583 -423 0
1583 423 0
1505 -424 0
-1505 424 0
1584 -425 0
-1584 425 0
1507 -426 0
-1507 426 0
1585 -427 0
-1585 427 0
-1586 -428 0
1586 428 0
-1587 -429 0
1587 429 0
-1588 -430 0
1588 430 0
1589 -432 0
-1589 432 0
1590 -433 0
-1590 433 0
1512 -434 0
-1512 434 0
1591 -435 0
-1591 435 0
-1592 -436 0
1592 436 0
1515 -437 0
-1515 437 0
1593 -438 0
-1593 438 0
1594 -440 0
-1594 440 0
1595 -441 0
-1595 441 0
-1596 -442 0
1596 442 0
-1597 -443 0
1597 443 0
1598 -445 0
-1598 445 0
1599 -446 0
-1599 446 0
1445 -447 0
-1445 447 0
1600 -448 0
-1600 448 0
-1601 -449 0
1601 449 0
1518 -450 0
-1518 450 0
1602 -451 0
-1602 451 0
1520 -452 0
-1520 452 0
1603 -453 0
-1603 453 0
-1604 -454 0
1604 454 0
-1605 -455 0
1605 455 0
-1606 -456 0
1606 456 0
-1607 -457 0
1607 457 0
-1608 -458 0
1608 458 0
1399 -460 0
-1399 460 0
460 0
-460 243 459 0
-243 239 -242 0
-239 234 -238 0
-234 231 -233 0
-231 228 -230 0
-228 224 -227 0
-224 220 -223 0
-220 216 -219 0
-216 212 -215 0
-212 208 -211 0
-208 204 -207 0
-204 200 -203 0
-200 197 -199 0
-197 194 -196 0
-194 190 -193 0
-190 186 -189 0
-186 182 -185 0
-182 178 -181 0
-178 174 -177 0
-174 170 -173 0
-170 166 -169 0
-166 162 -165 0
-162 158 -161 0
-158 154 -157 0
-154 150 -153 0
-150 146 -149 0
-146 142 -145 0
-142 138 -141 0
-138 134 -137 0
-134 131 -133 0
-131 128 -130 0
-128 124 -127 0
-124 121 -123 0
-121 118 -120 0
-118 115 -117 0
-115 111 -114 0
-111 107 -110 0
-107 103 -106 0
-103 99 -102 0
-99 95 -98 0
-95 91 -94 0
-91 87 -90 0
-87 83 -86 0
-83 79 -82 0
-79 75 -78 0
-75 71 -74 0
-71 67 -70 0
-67 63 -66 0
-63 59 -62 0
-59 55 -58 0
-55 51 -54 0
-51 47 -50 0
-47 43 -46 0
-43 39 -42 0
-39 35 -38 0
-35 31 -34 0
-31 27 -30 0
-27 23 -26 0
-23 19 -22 0
-19 15 -18 0
-15 11 -14 0
-11 7 -10 0
-7 -3 -6 0
1 -2 3 0
-1 2 3 0
4 -5 6 0
-4 5 6 0
8 -9 10 0
-8 9 10 0
12 13 14 0
-12 -13 14 0
-4 -8 13 0
-13 4 0
-13 8 0
16 -17 18 0
-16 17 18 0
20 -21 22 0
-20 21 22 0
24 25 26 0
-24 -25 26 0
-16 -20 25 0
-25 16 0
-25 20 0
28 29 30 0
-28 -29 30 0
-12 -24 29 0
-29 12 0
-29 24 0
32 33 34 0
-32 -33 34 0
-5 -8 33 0
-33 5 0
-33 8 0
36 37 38 0
-36 -37 38 0
-32 -24 37 0
-37 32 0
-37 24 0
40 41 42 0
-40 -41 42 0
-4 -9 41 0
-41 4 0
-41 9 0
44 45 46 0
-44 -45 46 0
-40 -24 45 0
-45 40 0
-45 24 0
48 49 50 0
-48 -49 50 0
-5 -9 49 0
-49 5 0
-49 9 0
52 53 54 0
-52 -53 54 0
-48 -24 53 0
-53 48 0
-53 24 0
56 57 58 0
-56 -57 58 0
-17 -20 57 0
-57 17 0
-57 20 0
60 61 62 0
-60 -61 62 0
-12 -56 61 0
-61 12 0
-61 56 0
64 65 66 0
-64 -65 66 0
-32 -56 65 0
-65 32 0
-65 56 0
68 69 70 0
-68 -69 70 0
-40 -56 69 0
-69 40 0
-69 56 0
72 73 74 0
-72 -73 74 0
-48 -56 73 0
-73 48 0
-73 56 0
76 77 78 0
-76 -77 78 0
-16 -21 77 0
-77 16 0
-77 21 0
80 81 82 0
-80 -81 82 0
-12 -76 81 0
-81 12 0
-81 76 0
84 85 86 0
-84 -85 86 0
-32 -76 85 0
-85 32 0
-85 76 0
88 89 90 0
-88 -89 90 0
-40 -76 89 0
-89 40 0
-89 76 0
92 93 94 0
-92 -93 94 0
-48 -76 93 0
-93 48 0
-93 76 0
96 97 98 0
-96 -97 98 0
-17 -21 97 0
-97 17 0
-97 21 0
100 101 102 0
-100 -101 102 0
-12 -96 101 0
-101 12 0
-101 96 0
104 105 106 0
-104 -105 106 0
-32 -96 105 0
-105 32 0
-105 96 0
108 109 110 0
-108 -109 110 0
-40 -96 109 0
-109 40 0
-109 96 0
112 113 114 0
-112 -113 114 0
-48 -96 113 0
-113 48 0
-113 96 0
116 -2 117 0
-116 2 117 0
119 -5 120 0
-119 5 120 0
122 -9 123 0
-122 9 123 0
125 126 127 0
-125 -126 127 0
-119 -122 126 0
-126 119 0
-126 122 0
129 -17 130 0
-129 17 130 0
132 -21 133 0
-132 21 133 0
135 136 137 0
-135 -136 137 0
-129 -132 136 0
-136 129 0
-136 132 0
139 140 141 0
-139 -140 141 0
-125 -135 140 0
-140 125 0
-140 135 0
143 144 145 0
-143 -144 145 0
-5 -122 144 0
-144 5 0
-144 122 0
147 148 149 0
-147 -148 149 0
-143 -135 148 0
-148 143 0
-148 135 0
151 152 153 0
-151 -152 153 0
-119 -9 152 0
-152 119 0
-152 9 0
155 156 157 0
-155 -156 157 0
-151 -135 156 0
-156 151 0
-156 135 0
159 160 161 0
-159 -160 161 0
-5 -9 160 0
-160 5 0
-160 9 0
163 164 165 0
-163 -164 165 0
-159 -135 164 0
-164 159 0
-164 135 0
167 168 169 0
-167 -168 169 0
-17 -132 168 0
-168 17 0
-168 132 0
171 172 173 0
-171 -172 173 0
-125 -167 172 0
-172 125 0
-172 167 0
175 176 177 0
-175 -176 177 0
-143 -167 176 0
-176 143 0
-176 167 0
179 180 181 0
-179 -180 181 0
-151 -167 180 0
-180 151 0
-180 167 0
183 184 185 0
-183 -184 185 0
-159 -167 184 0
-184 159 0
-184 167 0
187 188 189 0
-187 -188 189 0
-129 -21 188 0
-188 129 0
-188 21 0
191 192 193 0
-191 -192 193 0
-125 -187 192 0
-192 125 0
-192 187 0
195 143 196 0
-195 -143 196 0
198 187 199 0
-198 -187 199 0
201 202 203 0
-201 -202 203 0
-151 -187 202 0
-202 151 0
-202 187 0
205 206 207 0
-205 -206 207 0
-159 -187 206 0
-206 159 0
-206 187 0
209 210 211 0
-209 -210 211 0
-17 -21 210 0
-210 17 0
-210 21 0
213 214 215 0
-213 -214 215 0
-125 -209 214 0
-214 125 0
-214 209 0
217 218 219 0
-217 -218 219 0
-151 -209 218 0
-218 151 0
-218 209 0
221 222 223 0
-221 -222 223 0
-159 -209 222 0
-222 159 0
-222 209 0
225 226 227 0
-225 -226 227 0
-143 -187 226 0
-226 143 0
-226 187 0
229 187 230 0
-229 -187 230 0
232 213 233 0
-232 -213 233 0
235 237 238 0
-235 -237 238 0
-2 -236 237 0
-237 2 0
-237 236 0
240 241 242 0
-240 -241 242 0
-459 -359 458 0
-459 359 -458 0
-359 304 358 0
-304 274 303 0
-274 258 273 0
-258 250 257 0
-250 246 249 0
-246 245 0
-246 139 0
-245 116 0
-245 244 0
-249 248 0
-249 147 0
-248 116 0
-248 247 0
-257 253 256 0
-253 252 0
-253 155 0
-252 116 0
-252 251 0
-256 255 0
-256 163 0
-255 116 0
-255 254 0
-273 265 272 0
-265 261 264 0
-261 260 0
-261 171 0
-260 116 0
-260 259 0
-264 263 0
-264 175 0
-263 116 0
-263 262 0
-272 268 271 0
-268 267 0
-268 179 0
-267 116 0
-267 266 0
-271 270 0
-271 183 0
-270 116 0
-270 269 0
-303 287 302 0
-287 279 286 0
-279 277 278 0
-277 276 0
-277 191 0
-276 116 0
-276 275 0
-286 282 285 0
-282 281 0
-282 201 0
-281 116 0
-281 280 0
-285 284 0
-285 205 0
-284 116 0
-284 283 0
-302 294 301 0
-294 290 293 0
-290 289 0
-290 213 0
-289 116 0
-289 288 0
-293 292 0
-293 241 0
-292 116 0
-292 291 0
-301 297 300 0
-297 296 0
-297 217 0
-296 116 0
-296 295 0
-300 299 0
-300 221 0
-299 116 0
-299 298 0
-358 335 357 0
-335 319 334 0
-319 311 318 0
-311 307 310 0
-307 306 0
-307 139 0
-306 2 0
-306 305 0
-310 309 0
-310 147 0
-309 2 0
-309 308 0
-318 314 -317 0
-314 313 0
-314 155 0
-313 2 0
-313 312 0
-316 -163 317 0
-2 -315 316 0
-334 326 333 0
-326 322 325 0
-322 321 0
-322 171 0
-321 2 0
-321 320 0
-325 324 0
-325 175 0
-324 2 0
-324 323 0
-333 329 332 0
-329 328 0
-329 179 0
-328 2 0
-328 327 0
-332 331 0
-332 183 0
-331 2 0
-331 330 0
-357 347 356 0
-347 341 346 0
-341 337 340 0
-337 336 0
-337 191 0
-340 339 0
-340 225 0
-339 2 0
-339 338 0
-346 344 345 0
-344 343 0
-344 201 0
-343 2 0
-343 342 0
-356 348 355 0
-355 351 354 0
-351 350 0
-351 217 0
-350 2 0
-350 349 0
-354 353 0
-354 221 0
-353 2 0
-353 352 0
-458 407 457 0
-407 382 406 0
-382 370 381 0
-370 364 369 0
-364 361 363 0
-361 360 0
-361 28 0
-360 1 0
-360 244 0
-363 362 0
-363 36 0
-362 1 0
-362 247 0
-369 366 368 0
-366 365 0
-366 44 0
-365 1 0
-365 251 0
-368 367 0
-368 52 0
-367 1 0
-367 254 0
-381 375 380 0
-375 372 374 0
-372 371 0
-372 60 0
-371 1 0
-371 259 0
-374 373 0
-374 64 0
-373 1 0
-373 262 0
-380 377 379 0
-377 376 0
-377 68 0
-376 1 0
-376 266 0
-379 378 0
-379 72 0
-378 1 0
-378 269 0
-406 394 405 0
-394 388 393 0
-388 384 387 0
-384 383 0
-384 80 0
-383 1 0
-383 275 0
-387 386 0
-387 84 0
-386 1 0
-386 385 0
-393 390 392 0
-390 389 0
-390 88 0
-389 1 0
-389 280 0
-392 391 0
-392 92 0
-391 1 0
-391 283 0
-405 399 404 0
-399 396 398 0
-396 395 0
-396 100 0
-395 1 0
-395 288 0
-398 397 0
-398 104 0
-397 1 0
-397 291 0
-404 401 403 0
-401 400 0
-401 108 0
-400 1 0
-400 295 0
-403 402 0
-403 112 0
-402 1 0
-402 298 0
-457 430 456 0
-430 418 429 0
-418 412 417 0
-412 409 411 0
-409 408 0
-409 28 0
-408 2 0
-408 305 0
-411 410 0
-411 36 0
-410 2 0
-410 308 0
-417 414 416 0
-414 413 0
-414 44 0
-413 2 0
-413 312 0
-416 415 0
-416 52 0
-415 2 0
-415 315 0
-429 423 428 0
-423 420 422 0
-420 419 0
-420 60 0
-419 2 0
-419 320 0
-422 421 0
-422 64 0
-421 2 0
-421 323 0
-428 425 427 0
-425 424 0
-425 68 0
-424 2 0
-424 327 0
-427 426 0
-427 72 0
-426 2 0
-426 330 0
-456 443 455 0
-443 436 442 0
-436 433 435 0
-433 432 0
-433 80 0
-432 2 0
-432 431 0
-435 434 0
-435 84 0
-434 2 0
-434 338 0
-442 438 441 0
-438 437 0
-438 88 0
-437 2 0
-437 342 0
-441 440 0
-441 92 0
-440 2 0
-440 439 0
-455 449 454 0
-449 446 448 0
-446 445 0
-446 100 0
-445 2 0
-445 444 0
-448 447 0
-448 104 0
-447 2 0
-447 236 0
-454 451 453 0
-451 450 0
-451 108 0
-450 2 0
-450 349 0
-453 452 0
-453 112 0
-452 2 0
-452 352 0
-304 358 359 0
304 -358 359 0
-304 -358 359 0
-274 303 304 0
274 -303 304 0
-274 -303 304 0
-258 273 274 0
258 -273 274 0
-258 -273 274 0
-250 257 258 0
250 -257 258 0
-250 -257 258 0
-246 249 250 0
246 -249 250 0
-246 -249 250 0
-245 -139 246 0
-116 -244 245 0
-248 -147 249 0
-116 -247 248 0
-253 256 257 0
253 -256 257 0
-253 -256 257 0
-252 -155 253 0
-116 -251 252 0
-255 -163 256 0
-116 -254 255 0
-265 272 273 0
265 -272 273 0
-265 -272 273 0
-261 264 265 0
261 -264 265 0
-261 -264 265 0
-260 -171 261 0
-116 -259 260 0
-263 -175 264 0
-116 -262 263 0
-268 271 272 0
268 -271 272 0
-268 -271 272 0
-267 -179 268 0
-116 -266 267 0
-270 -183 271 0
-116 -269 270 0
-287 302 303 0
287 -302 303 0
-287 -302 303 0
-279 286 287 0
279 -286 287 0
-279 -286 287 0
-277 278 279 0
277 -278 279 0
-277 -278 279 0
-276 -191 277 0
-116 -275 276 0
-282 285 286 0
282 -285 286 0
-282 -285 286 0
-281 -201 282 0
-116 -280 281 0
-284 -205 285 0
-116 -283 284 0
-294 301 302 0
294 -301 302 0
-294 -301 302 0
-290 293 294 0
290 -293 294 0
-290 -293 294 0
-289 -213 290 0
-116 -288 289 0
-292 -241 293 0
-116 -291 292 0
-297 300 301 0
297 -300 301 0
-297 -300 301 0
-296 -217 297 0
-116 -295 296 0
-299 -221 300 0
-116 -298 299 0
-335 357 358 0
335 -357 358 0
-335 -357 358 0
-319 334 335 0
319 -334 335 0
-319 -334 335 0
-311 318 319 0
311 -318 319 0
-311 -318 319 0
-307 310 311 0
307 -310 311 0
-307 -310 311 0
-306 -139 307 0
-2 -305 306 0
-309 -147 310 0
-2 -308 309 0
-314 -317 318 0
314 317 318 0
-314 317 318 0
-313 -155 314 0
-2 -312 313 0
-317 316 0
-317 163 0
-316 2 0
-316 315 0
-326 333 334 0
326 -333 334 0
-326 -333 334 0
-322 325 326 0
322 -325 326 0
-322 -325 326 0
-321 -171 322 0
-2 -320 321 0
-324 -175 325 0
-2 -323 324 0
-329 332 333 0
329 -332 333 0
-329 -332 333 0
-328 -179 329 0
-2 -327 328 0
-331 -183 332 0
-2 -330 331 0
-347 356 357 0
347 -356 357 0
-347 -356 357 0
-341 346 347 0
341 -346 347 0
-341 -346 347 0
-337 340 341 0
337 -340 341 0
-337 -340 341 0
-336 -191 337 0
-339 -225 340 0
-2 -338 339 0
-344 345 346 0
344 -345 346 0
-344 -345 346 0
-343 -201 344 0
-2 -342 343 0
-348 355 356 0
348 -355 356 0
-348 -355 356 0
-351 354 355 0
351 -354 355 0
-351 -354 355 0
-350 -217 351 0
-2 -349 350 0
-353 -221 354 0
-2 -352 353 0
-407 457 458 0
407 -457 458 0
-407 -457 458 0
-382 406 407 0
382 -406 407 0
-382 -406 407 0
-370 381 382 0
370 -381 382 0
-370 -381 382 0
-364 369 370 0
364 -369 370 0
-364 -369 370 0
-361 363 364 0
361 -363 364 0
-361 -363 364 0
-360 -28 361 0
-1 -244 360 0
-362 -36 363 0
-1 -247 362 0
-366 368 369 0
366 -368 369 0
-366 -368 369 0
-365 -44 366 0
-1 -251 365 0
-367 -52 368 0
-1 -254 367 0
-375 380 381 0
375 -380 381 0
-375 -380 381 0
-372 374 375 0
372 -374 375 0
-372 -374 375 0
-371 -60 372 0
-1 -259 371 0
-373 -64 374 0
-1 -262 373 0
-377 379 380 0
377 -379 380 0
-377 -379 380 0
-376 -68 377 0
-1 -266 376 0
-378 -72 379 0
-1 -269 378 0
-394 405 406 0
394 -405 406 0
-394 -405 406 0
-388 393 394 0
388 -393 394 0
-388 -393 394 0
-384 387 388 0
384 -387 388 0
-384 -387 388 0
-383 -80 384 0
-1 -275 383 0
-386 -84 387 0
-1 -385 386 0
-390 392 393 0
390 -392 393 0
-390 -392 393 0
-389 -88 390 0
-1 -280 389 0
-391 -92 392 0
-1 -283 391 0
-399 404 405 0
399 -404 405 0
-399 -404 405 0
-396 398 399 0
396 -398 399 0
-396 -398 399 0
-395 -100 396 0
-1 -288 395 0
-397 -104 398 0
-1 -291 397 0
-401 403 404 0
401 -403 404 0
-401 -403 404 0
-400 -108 401 0
-1 -295 400 0
-402 -112 403 0
-1 -298 402 0
-430 456 457 0
430 -456 457 0
-430 -456 457 0
-418 429 430 0
418 -429 430 0
-418 -429 430 0
-412 417 418 0
412 -417 418 0
-412 -417 418 0
-409 411 412 0
409 -411 412 0
-409 -411 412 0
-408 -28 409 0
-2 -305 408 0
-410 -36 411 0
-2 -308 410 0
-414 416 417 0
414 -416 417 0
-414 -416 417 0
-413 -44 414 0
-2 -312 413 0
-415 -52 416 0
-2 -315 415 0
-423 428 429 0
423 -428 429 0
-423 -428 429 0
-420 422 423 0
420 -422 423 0
-420 -422 423 0
-419 -60 420 0
-2 -320 419 0
-421 -64 422 0
-2 -323 421 0
-425 427 428 0
425 -427 428 0
-425 -427 428 0
-424 -68 425 0
-2 -327 424 0
-426 -72 427 0
-2 -330 426 0
-443 455 456 0
443 -455 456 0
-443 -455 456 0
-436 442 443 0
436 -442 443 0
-436 -442 443 0
-433 435 436 0
433 -435 436 0
-433 -435 436 0
-432 -80 433 0
-2 -431 432 0
-434 -84 435 0
-2 -338 434 0
-438 441 442 0
438 -441 442 0
-438 -441 442 0
-437 -88 438 0
-2 -342 437 0
-440 -92 441 0
-2 -439 440 0
-449 454 455 0
449 -454 455 0
-449 -454 455 0
-446 448 449 0
446 -448 449 0
-446 -448 449 0
-445 -100 446 0
-2 -444 445 0
-447 -104 448 0
-2 -236 447 0
-451 453 454 0
451 -453 454 0
-451 -453 454 0
-450 -108 451 0
-2 -349 450 0
-452 -112 453 0
-2 -352 452 0
1399 0
4 -1400 0
8 -1400 0
-4 -8 1400 0
20 -1401 0
16 -1401 0
-20 -16 1401 0
24 -1402 0
12 -1402 0
-24 -12 1402 0
8 -1403 0
5 -1403 0
-8 -5 1403 0
32 -1404 0
24 -1404 0
-32 -24 1404 0
4 -1405 0
9 -1405 0
-4 -9 1405 0
40 -1406 0
24 -1406 0
-40 -24 1406 0
5 -1407 0
9 -1407 0
-5 -9 1407 0
48 -1408 0
24 -1408 0
-48 -24 1408 0
20 -1409 0
17 -1409 0
-20 -17 1409 0
56 -1410 0
12 -1410 0
-56 -12 1410 0
56 -1411 0
32 -1411 0
-56 -32 1411 0
56 -1412 0
40 -1412 0
-56 -40 1412 0
56 -1413 0
48 -1413 0
-56 -48 1413 0
16 -1414 0
21 -1414 0
-16 -21 1414 0
12 -1415 0
76 -1415 0
-12 -76 1415 0
32 -1416 0
76 -1416 0
-32 -76 1416 0
40 -1417 0
76 -1417 0
-40 -76 1417 0
48 -1418 0
76 -1418 0
-48 -76 1418 0
21 -1419 0
17 -1419 0
-21 -17 1419 0
12 -1420 0
96 -1420 0
-12 -96 1420 0
32 -1421 0
96 -1421 0
-32 -96 1421 0
40 -1422 0
96 -1422 0
-40 -96 1422 0
48 -1423 0
96 -1423 0
-48 -96 1423 0
122 -1424 0
119 -1424 0
-122 -119 1424 0
129 -1425 0
132 -1425 0
-129 -132 1425 0
135 -1426 0
125 -1426 0
-135 -125 1426 0
5 -1427 0
122 -1427 0
-5 -122 1427 0
135 -1428 0
143 -1428 0
-135 -143 1428 0
9 -1429 0
119 -1429 0
-9 -119 1429 0
151 -1430 0
135 -1430 0
-151 -135 1430 0
159 -1431 0
135 -1431 0
-159 -135 1431 0
17 -1432 0
132 -1432 0
-17 -132 1432 0
167 -1433 0
125 -1433 0
-167 -125 1433 0
167 -1434 0
143 -1434 0
-167 -143 1434 0
167 -1435 0
151 -1435 0
-167 -151 1435 0
167 -1436 0
159 -1436 0
-167 -159 1436 0
21 -1437 0
129 -1437 0
-21 -129 1437 0
187 -1438 0
125 -1438 0
-187 -125 1438 0
151 -1439 0
187 -1439 0
-151 -187 1439 0
159 -1440 0
187 -1440 0
-159 -187 1440 0
209 -1441 0
125 -1441 0
-209 -125 1441 0
151 -1442 0
209 -1442 0
-151 -209 1442 0
159 -1443 0
209 -1443 0
-159 -209 1443 0
187 -1444 0
143 -1444 0
-187 -143 1444 0
236 -1445 0
2 -1445 0
-236 -2 1445 0
244 -1446 0
116 -1446 0
-244 -116 1446 0
139 -1447 0
245 -1447 0
-139 -245 1447 0
247 -1448 0
116 -1448 0
-247 -116 1448 0
147 -1449 0
248 -1449 0
-147 -248 1449 0
-246 -1450 0
-249 -1450 0
246 249 1450 0
251 -1451 0
116 -1451 0
-251 -116 1451 0
155 -1452 0
252 -1452 0
-155 -252 1452 0
254 -1453 0
116 -1453 0
-254 -116 1453 0
163 -1454 0
255 -1454 0
-163 -255 1454 0
-253 -1455 0
-256 -1455 0
253 256 1455 0
-250 -1456 0
-257 -1456 0
250 257 1456 0
259 -1457 0
116 -1457 0
-259 -116 1457 0
171 -1458 0
260 -1458 0
-171 -260 1458 0
262 -1459 0
116 -1459 0
-262 -116 1459 0
175 -1460 0
263 -1460 0
-175 -263 1460 0
-261 -1461 0
-264 -1461 0
261 264 1461 0
266 -1462 0
116 -1462 0
-266 -116 1462 0
179 -1463 0
267 -1463 0
-179 -267 1463 0
269 -1464 0
116 -1464 0
-269 -116 1464 0
183 -1465 0
270 -1465 0
-183 -270 1465 0
-268 -1466 0
-271 -1466 0
268 271 1466 0
-265 -1467 0
-272 -1467 0
265 272 1467 0
-258 -1468 0
-273 -1468 0
258 273 1468 0
275 -1469 0
116 -1469 0
-275 -116 1469 0
191 -1470 0
276 -1470 0
-191 -276 1470 0
280 -1471 0
116 -1471 0
-280 -116 1471 0
201 -1472 0
281 -1472 0
-201 -281 1472 0
283 -1473 0
116 -1473 0
-283 -116 1473 0
205 -1474 0
284 -1474 0
-205 -284 1474 0
-282 -1475 0
-285 -1475 0
282 285 1475 0
-279 -1476 0
-286 -1476 0
279 286 1476 0
288 -1477 0
116 -1477 0
-288 -116 1477 0
213 -1478 0
289 -1478 0
-213 -289 1478 0
291 -1479 0
116 -1479 0
-291 -116 1479 0
-290 -1480 0
-293 -1480 0
290 293 1480 0
295 -1481 0
116 -1481 0
-295 -116 1481 0
217 -1482 0
296 -1482 0
-217 -296 1482 0
298 -1483 0
116 -1483 0
-298 -116 1483 0
221 -1484 0
299 -1484 0
-221 -299 1484 0
-297 -1485 0
-300 -1485 0
297 300 1485 0
-294 -1486 0
-301 -1486 0
294 301 1486 0
-287 -1487 0
1486 -1487 0
287 -1486 1487 0
-274 -1488 0
-303 -1488 0
274 303 1488 0
305 -1489 0
2 -1489 0
-305 -2 1489 0
139 -1490 0
306 -1490 0
-139 -306 1490 0
308 -1491 0
2 -1491 0
-308 -2 1491 0
147 -1492 0
309 -1492 0
-147 -309 1492 0
-307 -1493 0
-310 -1493 0
307 310 1493 0
312 -1494 0
2 -1494 0
-312 -2 1494 0
155 -1495 0
313 -1495 0
-155 -313 1495 0
315 -1496 0
2 -1496 0
-315 -2 1496 0
163 -1497 0
316 -1497 0
-163 -316 1497 0
-314 -1498 0
317 -1498 0
314 -317 1498 0
-311 -1499 0
-318 -1499 0
311 318 1499 0
320 -1500 0
2 -1500 0
-320 -2 1500 0
171 -1501 0
321 -1501 0
-171 -321 1501 0
323 -1502 0
2 -1502 0
-323 -2 1502 0
175 -1503 0
324 -1503 0
-175 -324 1503 0
-322 -1504 0
-325 -1504 0
322 325 1504 0
327 -1505 0
2 -1505 0
-327 -2 1505 0
179 -1506 0
328 -1506 0
-179 -328 1506 0
330 -1507 0
2 -1507 0
-330 -2 1507 0
183 -1508 0
331 -1508 0
-183 -331 1508 0
-329 -1509 0
-332 -1509 0
329 332 1509 0
-326 -1510 0
-333 -1510 0
326 333 1510 0
-319 -1511 0
1510 -1511 0
319 -1510 1511 0
338 -1512 0
2 -1512 0
-338 -2 1512 0
225 -1513 0
339 -1513 0
-225 -339 1513 0
-337 -1514 0
-340 -1514 0
337 340 1514 0
342 -1515 0
2 -1515 0
-342 -2 1515 0
201 -1516 0
343 -1516 0
-201 -343 1516 0
-341 -1517 0
-346 -1517 0
341 346 1517 0
349 -1518 0
2 -1518 0
-349 -2 1518 0
217 -1519 0
350 -1519 0
-217 -350 1519 0
352 -1520 0
2 -1520 0
-352 -2 1520 0
221 -1521 0
353 -1521 0
-221 -353 1521 0
-351 -1522 0
-354 -1522 0
351 354 1522 0
-347 -1523 0
-356 -1523 0
347 356 1523 0
-335 -1524 0
-357 -1524 0
335 357 1524 0
-304 -1525 0
-358 -1525 0
304 358 1525 0
1 -1526 0
244 -1526 0
-1 -244 1526 0
28 -1527 0
360 -1527 0
-28 -360 1527 0
1 -1528 0
247 -1528 0
-1 -247 1528 0
36 -1529 0
362 -1529 0
-36 -362 1529 0
-361 -1530 0
-363 -1530 0
361 363 1530 0
1 -1531 0
251 -1531 0
-1 -251 1531 0
44 -1532 0
365 -1532 0
-44 -365 1532 0
1 -1533 0
254 -1533 0
-1 -254 1533 0
52 -1534 0
367 -1534 0
-52 -367 1534 0
-366 -1535 0
-368 -1535 0
366 368 1535 0
-364 -1536 0
-369 -1536 0
364 369 1536 0
1 -1537 0
259 -1537 0
-1 -259 1537 0
60 -1538 0
371 -1538 0
-60 -371 1538 0
1 -1539 0
262 -1539 0
-1 -262 1539 0
64 -1540 0
373 -1540 0
-64 -373 1540 0
-372 -1541 0
-374 -1541 0
372 374 1541 0
1 -1542 0
266 -1542 0
-1 -266 1542 0
68 -1543 0
376 -1543 0
-68 -376 1543 0
1 -1544 0
269 -1544 0
-1 -269 1544 0
72 -1545 0
378 -1545 0
-72 -378 1545 0
-377 -1546 0
-379 -1546 0
377 379 1546 0
-375 -1547 0
-380 -1547 0
375 380 1547 0
-370 -1548 0
1547 -1548 0
370 -1547 1548 0
1 -1549 0
275 -1549 0
-1 -275 1549 0
80 -1550 0
383 -1550 0
-80 -383 1550 0
385 -1551 0
1 -1551 0
-385 -1 1551 0
84 -1552 0
386 -1552 0
-84 -386 1552 0
-384 -1553 0
-387 -1553 0
384 387 1553 0
280 -1554 0
1 -1554 0
-280 -1 1554 0
88 -1555 0
389 -1555 0
-88 -389 1555 0
283 -1556 0
1 -1556 0
-283 -1 1556 0
92 -1557 0
391 -1557 0
-92 -391 1557 0
-390 -1558 0
-392 -1558 0
390 392 1558 0
-388 -1559 0
-393 -1559 0
388 393 1559 0
288 -1560 0
1 -1560 0
-288 -1 1560 0
100 -1561 0
395 -1561 0
-100 -395 1561 0
291 -1562 0
1 -1562 0
-291 -1 1562 0
104 -1563 0
397 -1563 0
-104 -397 1563 0
-396 -1564 0
-398 -1564 0
396 398 1564 0
295 -1565 0
1 -1565 0
-295 -1 1565 0
108 -1566 0
400 -1566 0
-108 -400 1566 0
298 -1567 0
1 -1567 0
-298 -1 1567 0
112 -1568 0
402 -1568 0
-112 -402 1568 0
-401 -1569 0
-403 -1569 0
401 403 1569 0
-399 -1570 0
-404 -1570 0
399 404 1570 0
-394 -1571 0
1570 -1571 0
394 -1570 1571 0
-382 -1572 0
-394 -1572 0
382 394 1572 0
-405 -1573 0
1572 -1573 0
405 -1572 1573 0
28 -1574 0
408 -1574 0
-28 -408 1574 0
36 -1575 0
410 -1575 0
-36 -410 1575 0
-409 -1576 0
-411 -1576 0
409 411 1576 0
44 -1577 0
413 -1577 0
-44 -413 1577 0
52 -1578 0
415 -1578 0
-52 -415 1578 0
-414 -1579 0
-416 -1579 0
414 416 1579 0
-412 -1580 0
-417 -1580 0
412 417 1580 0
60 -1581 0
419 -1581 0
-60 -419 1581 0
64 -1582 0
421 -1582 0
-64 -421 1582 0
-420 -1583 0
-422 -1583 0
420 422 1583 0
68 -1584 0
424 -1584 0
-68 -424 1584 0
72 -1585 0
426 -1585 0
-72 -426 1585 0
-425 -1586 0
-427 -1586 0
425 427 1586 0
-423 -1587 0
-428 -1587 0
423 428 1587 0
-418 -1588 0
1587 -1588 0
418 -1587 1588 0
431 -1589 0
2 -1589 0
-431 -2 1589 0
80 -1590 0
432 -1590 0
-80 -432 1590 0
84 -1591 0
434 -1591 0
-84 -434 1591 0
-433 -1592 0
-435 -1592 0
433 435 1592 0
88 -1593 0
437 -1593 0
-88 -437 1593 0
439 -1594 0
2 -1594 0
-439 -2 1594 0
92 -1595 0
440 -1595 0
-92 -440 1595 0
-438 -1596 0
-441 -1596 0
438 441 1596 0
-436 -1597 0
-442 -1597 0
436 442 1597 0
444 -1598 0
2 -1598 0
-444 -2 1598 0
100 -1599 0
445 -1599 0
-100 -445 1599 0
104 -1600 0
447 -1600 0
-104 -447 1600 0
-446 -1601 0
-448 -1601 0
446 448 1601 0
108 -1602 0
450 -1602 0
-108 -450 1602 0
112 -1603 0
452 -1603 0
-112 -452 1603 0
-451 -1604 0
-453 -1604 0
451 453 1604 0
-449 -1605 0
-454 -1605 0
449 454 1605 0
-443 -1606 0
-455 -1606 0
443 455 1606 0
-430 -1607 0
-456 -1607 0
430 456 1607 0
-407 -1608 0
1607 -1608 0
407 -1607 1608 0
